networks/zoo_60_696/zoo_60_696.txt
Number of groups: 35
Flow 11: {30 12} {12 42} 
Flow 16: {21 17} {17 47} 
Flow 83: {3 2} {2 29} {29 59} 
Flow 104: {4 3} {3 22} {22 52} 
Flow 109: {22 23} {23 27} 
Flow 120: {5 1} {1 7} {7 15} {15 45} 
Flow 131: {6 7} {7 11} {11 26} 
Flow 150: {1 20} {20 50} 
Flow 169: {8 7} {7 14} {14 44} 
Flow 185: {9 11} {11 10} {10 40} 
Flow 224: {10 11} {11 27} {27 57} 
Flow 255: {7 1} {1 21} {21 30} {30 60} 
Flow 267: {12 30} {30 21} {21 51} 
Flow 278: {13 1} {1 5} {5 35} 
Flow 327: {14 7} {7 28} {28 58} 
Flow 335: {15 7} {7 6} {6 36} 
Flow 361: {16 22} {22 3} {3 4} {4 34} 
Flow 388: {17 21} {21 1} {1 13} {13 43} 
Flow 414: {18 1} {1 19} {19 49} 
Flow 425: {19 1} {1 31} 
Flow 443: {20 1} {1 2} {2 32} 
Flow 518: {23 11} {11 41} 
Flow 544: {24 11} {11 9} {9 39} 
Flow 558: {24 25} {25 55} 
Flow 559: {24 26} {26 56} 
Flow 568: {25 11} {11 7} {7 37} 
Flow 576: {25 24} 
Flow 601: {26 11} {11 23} {23 53} 
Flow 602: {26 24} 
Flow 623: {27 23} {23 22} {22 16} {16 46} 
Flow 630: {11 24} {24 54} 
Flow 631: {27 11} {11 25} 
Flow 642: {28 7} {7 8} {8 38} 
Flow 660: {2 3} {3 33} 
Flow 670: {29 2} {2 1} {1 18} {18 48} 
Time taken running everything: 7 seconds
