networks/zoo_60_696/zoo_60_696.sol
<?xml version = "1.0" encoding="UTF-8" standalone="yes"?>
<CPLEXSolution version="1.2">
 <header
   problemName="networks/zoo_60_696/zoo_60_696.lp"
   solutionName="incumbent"
   solutionIndex="-1"
   objectiveValue="35"
   solutionTypeValue="3"
   solutionTypeString="primal"
   solutionStatusValue="101"
   solutionStatusString="integer optimal solution"
   solutionMethodString="mip"
   primalFeasible="1"
   dualFeasible="1"
   MIPNodes="0"
   MIPIterations="7634"
   writeLevel="3"/>
 <quality
   epInt="1.0000000000000001e-05"
   epRHS="9.9999999999999995e-07"
   maxIntInfeas="0"
   maxPrimalInfeas="0"
   maxX="4"
   maxSlack="10"/>
 <variables>
  <variable name="Y(83,29)" index="4948" value="1"/>
  <variable name="Y(104,22)" index="6201" value="1"/>
  <variable name="Y(108,26)" index="6445" value="1"/>
  <variable name="Y(125,28)" index="7467" value="1"/>
  <variable name="Y(129,23)" index="7702" value="1"/>
  <variable name="Y(150,20)" index="8959" value="1"/>
  <variable name="Y(169,14)" index="10093" value="1"/>
  <variable name="Y(186,11)" index="11110" value="1"/>
  <variable name="Y(224,27)" index="13406" value="1"/>
  <variable name="Y(267,21)" index="15980" value="1"/>
  <variable name="Y(278,5)" index="16624" value="1"/>
  <variable name="Y(289,17)" index="17296" value="1"/>
  <variable name="Y(309,8)" index="18487" value="1"/>
  <variable name="Y(329,30)" index="19709" value="1"/>
  <variable name="Y(335,6)" index="20045" value="1"/>
  <variable name="Y(341,12)" index="20411" value="1"/>
  <variable name="Y(361,4)" index="21603" value="1"/>
  <variable name="Y(374,11)" index="22390" value="1"/>
  <variable name="Y(388,13)" index="23232" value="1"/>
  <variable name="Y(414,19)" index="24798" value="1"/>
  <variable name="Y(425,1)" index="25440" value="1"/>
  <variable name="Y(443,2)" index="26521" value="1"/>
  <variable name="Y(504,23)" index="30202" value="1"/>
  <variable name="Y(544,9)" index="32588" value="1"/>
  <variable name="Y(558,25)" index="33444" value="1"/>
  <variable name="Y(559,24)" index="33503" value="1"/>
  <variable name="Y(569,10)" index="34089" value="1"/>
  <variable name="Y(576,24)" index="34523" value="1"/>
  <variable name="Y(594,15)" index="35594" value="1"/>
  <variable name="Y(602,26)" index="36085" value="1"/>
  <variable name="Y(623,16)" index="37335" value="1"/>
  <variable name="Y(631,11)" index="37810" value="1"/>
  <variable name="Y(638,3)" index="38222" value="1"/>
  <variable name="Y(641,7)" index="38406" value="1"/>
  <variable name="Y(670,18)" index="40157" value="1"/>
  <variable name="X(1,2,443)" index="42202" value="1"/>
  <variable name="X(1,5,278)" index="42733" value="1"/>
  <variable name="X(1,7,125)" index="43276" value="1"/>
  <variable name="X(1,13,388)" index="44235" value="1"/>
  <variable name="X(1,18,670)" index="45213" value="1"/>
  <variable name="X(1,19,414)" index="45653" value="1"/>
  <variable name="X(1,20,150)" index="46085" value="1"/>
  <variable name="X(1,21,329)" index="46960" value="1"/>
  <variable name="X(1,31,425)" index="47752" value="1"/>
  <variable name="X(2,1,670)" index="48693" value="1"/>
  <variable name="X(2,3,638)" index="49357" value="1"/>
  <variable name="X(2,29,83)" index="49498" value="1"/>
  <variable name="X(2,32,443)" index="50554" value="1"/>
  <variable name="X(3,2,83)" index="50890" value="1"/>
  <variable name="X(3,4,361)" index="51864" value="1"/>
  <variable name="X(3,22,104)" index="52303" value="1"/>
  <variable name="X(3,33,638)" index="53533" value="1"/>
  <variable name="X(4,3,104)" index="53695" value="1"/>
  <variable name="X(4,34,361)" index="54648" value="1"/>
  <variable name="X(5,1,125)" index="55108" value="1"/>
  <variable name="X(5,35,278)" index="55957" value="1"/>
  <variable name="X(6,7,129)" index="56504" value="1"/>
  <variable name="X(6,36,335)" index="57406" value="1"/>
  <variable name="X(7,1,329)" index="58096" value="1"/>
  <variable name="X(7,6,335)" index="58798" value="1"/>
  <variable name="X(7,8,309)" index="59468" value="1"/>
  <variable name="X(7,11,129)" index="59984" value="1"/>
  <variable name="X(7,14,169)" index="60720" value="1"/>
  <variable name="X(7,15,594)" index="61841" value="1"/>
  <variable name="X(7,28,125)" index="62068" value="1"/>
  <variable name="X(7,37,641)" index="63280" value="1"/>
  <variable name="X(8,7,169)" index="63504" value="1"/>
  <variable name="X(8,38,309)" index="64340" value="1"/>
  <variable name="X(9,11,186)" index="64913" value="1"/>
  <variable name="X(9,39,544)" index="65967" value="1"/>
  <variable name="X(10,11,224)" index="66343" value="1"/>
  <variable name="X(10,40,569)" index="67384" value="1"/>
  <variable name="X(11,7,594)" index="68105" value="1"/>
  <variable name="X(11,9,544)" index="68751" value="1"/>
  <variable name="X(11,10,569)" index="69472" value="1"/>
  <variable name="X(11,23,129)" index="69728" value="1"/>
  <variable name="X(11,24,374)" index="70669" value="1"/>
  <variable name="X(11,25,631)" index="71622" value="1"/>
  <variable name="X(11,26,108)" index="71795" value="1"/>
  <variable name="X(11,27,224)" index="72607" value="1"/>
  <variable name="X(11,41,186)" index="73265" value="1"/>
  <variable name="X(12,30,267)" index="74042" value="1"/>
  <variable name="X(12,42,341)" index="74812" value="1"/>
  <variable name="X(13,1,278)" index="75445" value="1"/>
  <variable name="X(13,43,388)" index="76251" value="1"/>
  <variable name="X(14,7,309)" index="76868" value="1"/>
  <variable name="X(14,44,169)" index="77424" value="1"/>
  <variable name="X(15,7,335)" index="78286" value="1"/>
  <variable name="X(15,45,594)" index="79241" value="1"/>
  <variable name="X(16,22,361)" index="79704" value="1"/>
  <variable name="X(16,46,623)" index="80662" value="1"/>
  <variable name="X(17,21,388)" index="81123" value="1"/>
  <variable name="X(17,47,289)" index="81720" value="1"/>
  <variable name="X(18,1,414)" index="82541" value="1"/>
  <variable name="X(18,48,670)" index="83493" value="1"/>
  <variable name="X(19,1,425)" index="83944" value="1"/>
  <variable name="X(19,49,414)" index="84629" value="1"/>
  <variable name="X(20,1,443)" index="85354" value="1"/>
  <variable name="X(20,50,150)" index="85757" value="1"/>
  <variable name="X(21,1,388)" index="86691" value="1"/>
  <variable name="X(21,17,289)" index="87288" value="1"/>
  <variable name="X(21,30,329)" index="88024" value="1"/>
  <variable name="X(21,51,267)" index="88658" value="1"/>
  <variable name="X(22,3,361)" index="89448" value="1"/>
  <variable name="X(22,16,623)" index="90406" value="1"/>
  <variable name="X(22,23,374)" index="90853" value="1"/>
  <variable name="X(22,52,104)" index="91279" value="1"/>
  <variable name="X(23,11,374)" index="92245" value="1"/>
  <variable name="X(23,22,623)" index="93190" value="1"/>
  <variable name="X(23,27,504)" index="93767" value="1"/>
  <variable name="X(23,53,129)" index="94088" value="1"/>
  <variable name="X(24,11,544)" index="95199" value="1"/>
  <variable name="X(24,25,558)" index="95909" value="1"/>
  <variable name="X(24,26,559)" index="96606" value="1"/>
  <variable name="X(24,54,576)" index="97319" value="1"/>
  <variable name="X(25,11,569)" index="98008" value="1"/>
  <variable name="X(25,24,576)" index="98711" value="1"/>
  <variable name="X(25,55,558)" index="99389" value="1"/>
  <variable name="X(26,11,594)" index="100121" value="1"/>
  <variable name="X(26,24,602)" index="100825" value="1"/>
  <variable name="X(26,56,108)" index="101027" value="1"/>
  <variable name="X(27,11,631)" index="102246" value="1"/>
  <variable name="X(27,23,623)" index="102934" value="1"/>
  <variable name="X(27,57,224)" index="103231" value="1"/>
  <variable name="X(28,7,641)" index="104344" value="1"/>
  <variable name="X(28,58,125)" index="104524" value="1"/>
  <variable name="X(29,2,670)" index="105765" value="1"/>
  <variable name="X(29,59,83)" index="105874" value="1"/>
  <variable name="X(30,12,341)" index="106828" value="1"/>
  <variable name="X(30,21,267)" index="107450" value="1"/>
  <variable name="X(30,60,329)" index="108208" value="1"/>
  <variable name="C(83,2)" index="108879" value="1"/>
  <variable name="C(83,29)" index="108880" value="2"/>
  <variable name="C(104,3)" index="108984" value="1"/>
  <variable name="C(104,22)" index="108985" value="2"/>
  <variable name="C(108,26)" index="109007" value="1"/>
  <variable name="C(125,1)" index="109077" value="1"/>
  <variable name="C(125,7)" index="109078" value="2"/>
  <variable name="C(125,28)" index="109079" value="3"/>
  <variable name="C(129,7)" index="109092" value="1"/>
  <variable name="C(129,11)" index="109093" value="2"/>
  <variable name="C(129,23)" index="109094" value="2.9999999999999996"/>
  <variable name="C(150,20)" index="109161" value="1"/>
  <variable name="C(169,7)" index="109226" value="1"/>
  <variable name="C(169,14)" index="109227" value="2"/>
  <variable name="C(186,11)" index="109295" value="1"/>
  <variable name="C(224,11)" index="109454" value="1"/>
  <variable name="C(224,27)" index="109455" value="2"/>
  <variable name="C(267,30)" index="109630" value="1"/>
  <variable name="C(267,21)" index="109631" value="2"/>
  <variable name="C(278,1)" index="109688" value="1"/>
  <variable name="C(278,5)" index="109689" value="2"/>
  <variable name="C(289,17)" index="109737" value="1"/>
  <variable name="C(309,7)" index="109817" value="1"/>
  <variable name="C(309,8)" index="109818" value="2"/>
  <variable name="C(329,1)" index="109901" value="1"/>
  <variable name="C(329,21)" index="109902" value="2"/>
  <variable name="C(329,30)" index="109903" value="3"/>
  <variable name="C(335,7)" index="109927" value="1"/>
  <variable name="C(335,6)" index="109928" value="2"/>
  <variable name="C(341,12)" index="109950" value="1"/>
  <variable name="C(361,22)" index="110032" value="1"/>
  <variable name="C(361,3)" index="110033" value="2"/>
  <variable name="C(361,4)" index="110034" value="3"/>
  <variable name="C(374,23)" index="110098" value="1"/>
  <variable name="C(374,11)" index="110099" value="2"/>
  <variable name="C(388,21)" index="110167" value="1"/>
  <variable name="C(388,1)" index="110168" value="2"/>
  <variable name="C(388,13)" index="110169" value="3"/>
  <variable name="C(414,1)" index="110284" value="1"/>
  <variable name="C(414,19)" index="110285" value="2"/>
  <variable name="C(425,19)" index="110331" value="3"/>
  <variable name="C(425,1)" index="110332" value="4"/>
  <variable name="C(443,1)" index="110403" value="1"/>
  <variable name="C(443,2)" index="110404" value="2"/>
  <variable name="C(544,11)" index="110814" value="1"/>
  <variable name="C(544,9)" index="110815" value="2"/>
  <variable name="C(558,25)" index="110875" value="1"/>
  <variable name="C(569,11)" index="110921" value="1"/>
  <variable name="C(569,10)" index="110922" value="2"/>
  <variable name="C(576,24)" index="110947" value="1"/>
  <variable name="C(594,11)" index="111019" value="1"/>
  <variable name="C(594,7)" index="111020" value="2"/>
  <variable name="C(594,15)" index="111021" value="3"/>
  <variable name="C(623,27)" index="111141" value="1"/>
  <variable name="C(623,23)" index="111142" value="2"/>
  <variable name="C(623,22)" index="111143" value="3"/>
  <variable name="C(623,16)" index="111144" value="4"/>
  <variable name="C(631,11)" index="111175" value="1"/>
  <variable name="C(638,3)" index="111207" value="1"/>
  <variable name="C(641,7)" index="111219" value="1"/>
  <variable name="C(670,2)" index="111334" value="1"/>
  <variable name="C(670,1)" index="111335" value="2"/>
  <variable name="C(670,18)" index="111336" value="3"/>
 </variables>
</CPLEXSolution>
